p edge 200 1000
e 1 42
e 1 145
e 1 148
e 1 154
e 1 190
e 2 70
e 2 71
e 2 109
e 2 115
e 2 120
e 3 1
e 3 79
e 3 96
e 3 136
e 3 150
e 4 1
e 4 66
e 4 102
e 4 115
e 4 120
e 5 42
e 5 77
e 5 92
e 5 108
e 5 158
e 6 51
e 6 111
e 6 151
e 6 174
e 6 181
e 7 37
e 7 86
e 7 142
e 7 157
e 7 170
e 8 49
e 8 105
e 8 158
e 8 187
e 8 200
e 9 42
e 9 49
e 9 58
e 9 127
e 9 156
e 10 41
e 10 102
e 10 102
e 10 120
e 10 184
e 11 3
e 11 8
e 11 55
e 11 72
e 11 127
e 12 4
e 12 144
e 12 149
e 12 166
e 12 173
e 13 20
e 13 23
e 13 26
e 13 113
e 13 177
e 14 1
e 14 74
e 14 109
e 14 152
e 14 199
e 15 109
e 15 119
e 15 120
e 15 167
e 15 194
e 16 23
e 16 57
e 16 124
e 16 133
e 16 194
e 17 24
e 17 60
e 17 88
e 17 111
e 17 187
e 18 52
e 18 114
e 18 142
e 18 143
e 18 150
e 19 22
e 19 75
e 19 76
e 19 96
e 19 200
e 20 19
e 20 51
e 20 105
e 20 163
e 20 165
e 21 49
e 21 94
e 21 186
e 21 190
e 21 190
e 22 2
e 22 11
e 22 60
e 22 128
e 22 140
e 23 52
e 23 130
e 23 147
e 23 166
e 23 177
e 24 38
e 24 78
e 24 92
e 24 153
e 24 185
e 25 22
e 25 26
e 25 128
e 25 165
e 25 196
e 26 47
e 26 58
e 26 122
e 26 171
e 26 197
e 27 63
e 27 106
e 27 121
e 27 156
e 27 198
e 28 16
e 28 37
e 28 119
e 28 125
e 28 158
e 29 51
e 29 56
e 29 118
e 29 140
e 29 179
e 30 18
e 30 52
e 30 141
e 30 146
e 30 177
e 31 41
e 31 43
e 31 107
e 31 150
e 31 197
e 32 11
e 32 90
e 32 118
e 32 181
e 32 198
e 33 34
e 33 111
e 33 124
e 33 175
e 33 176
e 34 31
e 34 44
e 34 48
e 34 104
e 34 149
e 35 17
e 35 104
e 35 120
e 35 156
e 35 199
e 36 86
e 36 134
e 36 156
e 36 174
e 36 181
e 37 4
e 37 6
e 37 9
e 37 129
e 37 150
e 38 95
e 38 110
e 38 132
e 38 176
e 38 190
e 39 24
e 39 68
e 39 92
e 39 150
e 39 152
e 40 4
e 40 19
e 40 152
e 40 185
e 40 193
e 41 47
e 41 78
e 41 89
e 41 104
e 41 171
e 42 44
e 42 119
e 42 125
e 42 147
e 42 157
e 43 3
e 43 117
e 43 123
e 43 151
e 43 176
e 44 24
e 44 37
e 44 64
e 44 109
e 44 181
e 45 10
e 45 54
e 45 75
e 45 189
e 45 192
e 46 17
e 46 83
e 46 98
e 46 105
e 46 148
e 47 76
e 47 123
e 47 168
e 47 169
e 47 199
e 48 16
e 48 74
e 48 113
e 48 173
e 48 182
e 49 27
e 49 56
e 49 145
e 49 151
e 49 171
e 50 53
e 50 70
e 50 72
e 50 118
e 50 174
e 51 18
e 51 43
e 51 173
e 51 189
e 51 199
e 52 9
e 52 107
e 52 152
e 52 162
e 52 199
e 53 40
e 53 117
e 53 173
e 53 178
e 53 187
e 54 37
e 54 120
e 54 127
e 54 187
e 54 194
e 55 26
e 55 42
e 55 81
e 55 114
e 55 156
e 56 68
e 56 80
e 56 82
e 56 170
e 56 193
e 57 2
e 57 48
e 57 119
e 57 183
e 57 197
e 58 15
e 58 18
e 58 21
e 58 74
e 58 190
e 59 33
e 59 90
e 59 102
e 59 142
e 59 189
e 60 32
e 60 47
e 60 53
e 60 115
e 60 183
e 61 31
e 61 33
e 61 87
e 61 121
e 61 157
e 62 89
e 62 96
e 62 158
e 62 176
e 62 178
e 63 3
e 63 19
e 63 114
e 63 139
e 63 152
e 64 58
e 64 82
e 64 83
e 64 130
e 64 140
e 65 78
e 65 88
e 65 103
e 65 105
e 65 154
e 66 58
e 66 92
e 66 95
e 66 165
e 66 199
e 67 23
e 67 34
e 67 35
e 67 76
e 67 101
e 68 28
e 68 58
e 68 105
e 68 131
e 68 148
e 69 63
e 69 87
e 69 135
e 69 147
e 69 187
e 70 44
e 70 47
e 70 96
e 70 134
e 70 151
e 71 17
e 71 17
e 71 62
e 71 136
e 71 169
e 72 4
e 72 48
e 72 74
e 72 157
e 72 179
e 73 8
e 73 53
e 73 109
e 73 110
e 73 196
e 74 51
e 74 52
e 74 142
e 74 155
e 74 167
e 75 104
e 75 127
e 75 136
e 75 175
e 75 180
e 76 8
e 76 66
e 76 74
e 76 95
e 76 179
e 77 12
e 77 80
e 77 105
e 77 108
e 77 157
e 78 59
e 78 75
e 78 148
e 78 154
e 78 190
e 79 101
e 79 123
e 79 136
e 79 153
e 79 198
e 80 11
e 80 26
e 80 61
e 80 79
e 80 86
e 81 16
e 81 79
e 81 82
e 81 88
e 81 168
e 82 35
e 82 109
e 82 112
e 82 166
e 82 185
e 83 60
e 83 102
e 83 119
e 83 144
e 83 181
e 84 38
e 84 72
e 84 97
e 84 146
e 84 175
e 85 5
e 85 36
e 85 70
e 85 117
e 85 131
e 86 79
e 86 158
e 86 175
e 86 191
e 86 194
e 87 9
e 87 137
e 87 144
e 87 179
e 87 188
e 88 14
e 88 46
e 88 92
e 88 122
e 88 156
e 89 123
e 89 125
e 89 134
e 89 183
e 89 195
e 90 17
e 90 60
e 90 61
e 90 99
e 90 152
e 91 4
e 91 23
e 91 77
e 91 193
e 91 194
e 92 30
e 92 100
e 92 117
e 92 139
e 92 149
e 93 58
e 93 65
e 93 65
e 93 86
e 93 143
e 94 1
e 94 22
e 94 138
e 94 152
e 94 175
e 95 96
e 95 113
e 95 162
e 95 170
e 95 175
e 96 18
e 96 51
e 96 126
e 96 158
e 96 158
e 97 43
e 97 60
e 97 94
e 97 94
e 97 107
e 98 42
e 98 45
e 98 77
e 98 154
e 98 158
e 99 19
e 99 59
e 99 105
e 99 151
e 99 156
e 100 32
e 100 89
e 100 137
e 100 168
e 100 194
e 101 42
e 101 153
e 101 157
e 101 184
e 101 200
e 102 42
e 102 89
e 102 93
e 102 108
e 102 127
e 103 15
e 103 20
e 103 25
e 103 137
e 103 139
e 104 16
e 104 33
e 104 124
e 104 130
e 104 146
e 105 17
e 105 32
e 105 76
e 105 99
e 105 126
e 106 14
e 106 104
e 106 141
e 106 160
e 106 174
e 107 32
e 107 91
e 107 115
e 107 142
e 107 199
e 108 3
e 108 3
e 108 31
e 108 114
e 108 131
e 109 14
e 109 70
e 109 72
e 109 82
e 109 155
e 110 65
e 110 122
e 110 130
e 110 153
e 110 199
e 111 31
e 111 91
e 111 101
e 111 136
e 111 182
e 112 41
e 112 59
e 112 106
e 112 120
e 112 198
e 113 122
e 113 134
e 113 154
e 113 181
e 113 189
e 114 45
e 114 121
e 114 135
e 114 148
e 114 167
e 115 11
e 115 14
e 115 93
e 115 117
e 115 172
e 116 6
e 116 16
e 116 147
e 116 159
e 116 170
e 117 3
e 117 34
e 117 35
e 117 170
e 117 180
e 118 47
e 118 61
e 118 124
e 118 162
e 118 186
e 119 12
e 119 29
e 119 83
e 119 143
e 119 163
e 120 32
e 120 48
e 120 87
e 120 126
e 120 172
e 121 8
e 121 12
e 121 65
e 121 122
e 121 160
e 122 46
e 122 84
e 122 98
e 122 107
e 122 126
e 123 43
e 123 75
e 123 120
e 123 135
e 123 139
e 124 49
e 124 52
e 124 56
e 124 111
e 124 141
e 125 28
e 125 36
e 125 41
e 125 59
e 125 96
e 126 2
e 126 82
e 126 97
e 126 134
e 126 196
e 127 62
e 127 88
e 127 96
e 127 132
e 127 148
e 128 17
e 128 96
e 128 115
e 128 119
e 128 133
e 129 24
e 129 30
e 129 79
e 129 162
e 129 176
e 130 8
e 130 58
e 130 88
e 130 102
e 130 159
e 131 45
e 131 84
e 131 98
e 131 144
e 131 150
e 132 100
e 132 125
e 132 146
e 132 146
e 132 155
e 133 42
e 133 110
e 133 121
e 133 165
e 133 196
e 134 30
e 134 44
e 134 75
e 134 136
e 134 166
e 135 14
e 135 35
e 135 109
e 135 164
e 135 175
e 136 55
e 136 77
e 136 90
e 136 105
e 136 120
e 137 21
e 137 52
e 137 81
e 137 89
e 137 134
e 138 48
e 138 88
e 138 153
e 138 179
e 138 186
e 139 23
e 139 82
e 139 84
e 139 153
e 139 185
e 140 7
e 140 29
e 140 74
e 140 168
e 140 184
e 141 5
e 141 22
e 141 96
e 141 131
e 141 171
e 142 54
e 142 89
e 142 143
e 142 174
e 142 183
e 143 17
e 143 135
e 143 149
e 143 162
e 143 190
e 144 6
e 144 38
e 144 67
e 144 109
e 144 121
e 145 41
e 145 113
e 145 141
e 145 146
e 145 178
e 146 29
e 146 85
e 146 156
e 146 165
e 146 193
e 147 34
e 147 47
e 147 76
e 147 130
e 147 156
e 148 5
e 148 15
e 148 30
e 148 57
e 148 139
e 149 21
e 149 27
e 149 78
e 149 127
e 149 167
e 150 20
e 150 60
e 150 142
e 150 191
e 150 194
e 151 13
e 151 29
e 151 83
e 151 101
e 151 133
e 152 46
e 152 107
e 152 143
e 152 163
e 152 170
e 153 56
e 153 64
e 153 84
e 153 84
e 153 108
e 154 28
e 154 73
e 154 100
e 154 118
e 154 192
e 155 26
e 155 28
e 155 128
e 155 136
e 155 161
e 156 30
e 156 87
e 156 109
e 156 118
e 156 165
e 157 42
e 157 75
e 157 84
e 157 100
e 157 138
e 158 9
e 158 25
e 158 54
e 158 82
e 158 95
e 159 27
e 159 51
e 159 60
e 159 149
e 159 182
e 160 2
e 160 40
e 160 85
e 160 111
e 160 144
e 161 19
e 161 66
e 161 76
e 161 148
e 161 170
e 162 43
e 162 69
e 162 128
e 162 148
e 162 192
e 163 35
e 163 61
e 163 71
e 163 135
e 163 153
e 164 30
e 164 43
e 164 120
e 164 140
e 164 200
e 165 7
e 165 46
e 165 69
e 165 113
e 165 193
e 166 77
e 166 79
e 166 89
e 166 142
e 166 163
e 167 13
e 167 42
e 167 95
e 167 100
e 167 102
e 168 52
e 168 79
e 168 104
e 168 108
e 168 138
e 169 12
e 169 38
e 169 73
e 169 93
e 169 97
e 170 41
e 170 69
e 170 79
e 170 140
e 170 165
e 171 3
e 171 53
e 171 75
e 171 91
e 171 162
e 172 19
e 172 26
e 172 82
e 172 188
e 172 197
e 173 16
e 173 66
e 173 72
e 173 146
e 173 180
e 174 18
e 174 73
e 174 86
e 174 95
e 174 187
e 175 107
e 175 110
e 175 114
e 175 119
e 175 139
e 176 17
e 176 77
e 176 89
e 176 116
e 176 189
e 177 30
e 177 85
e 177 106
e 177 114
e 177 134
e 178 98
e 178 126
e 178 137
e 178 152
e 178 176
e 179 53
e 179 102
e 179 152
e 179 178
e 179 190
e 180 23
e 180 49
e 180 66
e 180 148
e 180 159
e 181 29
e 181 107
e 181 115
e 181 121
e 181 198
e 182 67
e 182 70
e 182 132
e 182 144
e 182 161
e 183 83
e 183 129
e 183 152
e 183 169
e 183 184
e 184 69
e 184 69
e 184 111
e 184 176
e 184 193
e 185 5
e 185 78
e 185 81
e 185 105
e 185 126
e 186 2
e 186 2
e 186 51
e 186 102
e 186 169
e 187 39
e 187 106
e 187 107
e 187 131
e 187 158
e 188 30
e 188 53
e 188 94
e 188 133
e 188 172
e 189 50
e 189 105
e 189 111
e 189 121
e 189 145
e 190 21
e 190 54
e 190 124
e 190 126
e 190 191
e 191 19
e 191 52
e 191 77
e 191 88
e 191 198
e 192 10
e 192 24
e 192 69
e 192 120
e 192 173
e 193 56
e 193 73
e 193 146
e 193 177
e 193 196
e 194 25
e 194 31
e 194 88
e 194 150
e 194 160
e 195 66
e 195 80
e 195 101
e 195 134
e 195 194
e 196 6
e 196 110
e 196 118
e 196 118
e 196 173
e 197 4
e 197 28
e 197 28
e 197 38
e 197 110
e 198 33
e 198 82
e 198 84
e 198 105
e 198 169
e 199 36
e 199 119
e 199 131
e 199 155
e 199 182
e 200 2
e 200 20
e 200 91
e 200 131
e 200 148
